certificates/rado_a11_c14_N39.cnf
c Rad2 upper bound instance: x1 + 11*x2 - x3 = 14, interval [1,39]
p cnf 39 192
1 2 9 0
-1 -2 -9 0
1 3 20 0
-1 -3 -20 0
1 4 31 0
-1 -4 -31 0
2 10 0
-2 -10 0
2 3 21 0
-2 -3 -21 0
2 4 32 0
-2 -4 -32 0
2 3 11 0
-2 -3 -11 0
3 22 0
-3 -22 0
3 4 33 0
-3 -4 -33 0
1 4 0
-1 -4 0
2 4 12 0
-2 -4 -12 0
3 4 23 0
-3 -4 -23 0
4 34 0
-4 -34 0
1 2 5 0
-1 -2 -5 0
2 5 13 0
-2 -5 -13 0
3 5 24 0
-3 -5 -24 0
4 5 35 0
-4 -5 -35 0
1 3 6 0
-1 -3 -6 0
2 6 14 0
-2 -6 -14 0
3 6 25 0
-3 -6 -25 0
4 6 36 0
-4 -6 -36 0
1 4 7 0
-1 -4 -7 0
2 7 15 0
-2 -7 -15 0
3 7 26 0
-3 -7 -26 0
4 7 37 0
-4 -7 -37 0
1 5 8 0
-1 -5 -8 0
2 8 16 0
-2 -8 -16 0
3 8 27 0
-3 -8 -27 0
4 8 38 0
-4 -8 -38 0
1 6 9 0
-1 -6 -9 0
2 9 17 0
-2 -9 -17 0
3 9 28 0
-3 -9 -28 0
4 9 39 0
-4 -9 -39 0
1 7 10 0
-1 -7 -10 0
2 10 18 0
-2 -10 -18 0
3 10 29 0
-3 -10 -29 0
1 8 11 0
-1 -8 -11 0
2 11 19 0
-2 -11 -19 0
3 11 30 0
-3 -11 -30 0
1 9 12 0
-1 -9 -12 0
2 12 20 0
-2 -12 -20 0
3 12 31 0
-3 -12 -31 0
1 10 13 0
-1 -10 -13 0
2 13 21 0
-2 -13 -21 0
3 13 32 0
-3 -13 -32 0
1 11 14 0
-1 -11 -14 0
2 14 22 0
-2 -14 -22 0
3 14 33 0
-3 -14 -33 0
1 12 15 0
-1 -12 -15 0
2 15 23 0
-2 -15 -23 0
3 15 34 0
-3 -15 -34 0
1 13 16 0
-1 -13 -16 0
2 16 24 0
-2 -16 -24 0
3 16 35 0
-3 -16 -35 0
1 14 17 0
-1 -14 -17 0
2 17 25 0
-2 -17 -25 0
3 17 36 0
-3 -17 -36 0
1 15 18 0
-1 -15 -18 0
2 18 26 0
-2 -18 -26 0
3 18 37 0
-3 -18 -37 0
1 16 19 0
-1 -16 -19 0
2 19 27 0
-2 -19 -27 0
3 19 38 0
-3 -19 -38 0
1 17 20 0
-1 -17 -20 0
2 20 28 0
-2 -20 -28 0
3 20 39 0
-3 -20 -39 0
1 18 21 0
-1 -18 -21 0
2 21 29 0
-2 -21 -29 0
1 19 22 0
-1 -19 -22 0
2 22 30 0
-2 -22 -30 0
1 20 23 0
-1 -20 -23 0
2 23 31 0
-2 -23 -31 0
1 21 24 0
-1 -21 -24 0
2 24 32 0
-2 -24 -32 0
1 22 25 0
-1 -22 -25 0
2 25 33 0
-2 -25 -33 0
1 23 26 0
-1 -23 -26 0
2 26 34 0
-2 -26 -34 0
1 24 27 0
-1 -24 -27 0
2 27 35 0
-2 -27 -35 0
1 25 28 0
-1 -25 -28 0
2 28 36 0
-2 -28 -36 0
1 26 29 0
-1 -26 -29 0
2 29 37 0
-2 -29 -37 0
1 27 30 0
-1 -27 -30 0
2 30 38 0
-2 -30 -38 0
1 28 31 0
-1 -28 -31 0
2 31 39 0
-2 -31 -39 0
1 29 32 0
-1 -29 -32 0
1 30 33 0
-1 -30 -33 0
1 31 34 0
-1 -31 -34 0
1 32 35 0
-1 -32 -35 0
1 33 36 0
-1 -33 -36 0
1 34 37 0
-1 -34 -37 0
1 35 38 0
-1 -35 -38 0
1 36 39 0
-1 -36 -39 0
