certificates/rado_a11_c14_N39.drat
-36 -39 0
d -36 -1 -39 0
6 9 36 0
-4 9 0
4 -37 0
-4 -39 0
d -9 -4 -39 0
-39 0
9 0
-4 0
1 0
34 0
-37 0
-12 0
-2 0
-6 0
-31 0
7 0
20 0
3 0
0
